(set-logic QF_LIA)
(declare-fun x0 () Int)
(declare-fun x1 () Int)
(declare-fun x2 () Int)
(declare-fun x3 () Int)
(declare-fun x4 () Int)
(declare-fun x5 () Int)
(declare-fun x6 () Int)
(declare-fun x7 () Int)
(declare-fun x8 () Int)
(declare-fun x9 () Int)
(declare-fun A2 () Bool)
(declare-fun A3 () Bool)
(declare-fun A4 () Bool)
(declare-fun A6 () Bool)
(declare-fun A9 () Bool)
(assert (let ((.def_0 (* (- 1) x3))) (let ((.def_1 (< .def_0 1))) (let ((.def_2 (or A6 .def_1))) (let ((.def_3 (* (- 1) x2))) (let ((.def_4 (< .def_3 1))) (let ((.def_5 (not .def_4))) (let ((.def_6 (* 1 x7))) (let ((.def_7 (* 1 x1))) (let ((.def_8 (+ .def_7 .def_6))) (let ((.def_9 (< .def_8 1))) (let ((.def_10 (not .def_9))) (let ((.def_11 (and .def_10 .def_5))) (let ((.def_12 (= .def_11 .def_2))) (let ((.def_13 (not .def_12))) (let ((.def_14 (* 1 x8))) (let ((.def_15 (< .def_14 (- 1)))) (let ((.def_16 (* 1 x6))) (let ((.def_17 (< .def_16 1))) (let ((.def_18 (not .def_17))) (let ((.def_19 (or .def_18 .def_15))) (let ((.def_20 (* (- 1) x4))) (let ((.def_21 (< .def_20 (- 1)))) (let ((.def_22 (not .def_21))) (let ((.def_23 (* (- 1) x6))) (let ((.def_24 (< .def_23 1))) (let ((.def_25 (or .def_24 .def_22))) (let ((.def_26 (= .def_25 .def_19))) (let ((.def_27 (not .def_26))) (let ((.def_28 (and .def_27 .def_13))) (let ((.def_29 (* 1 x5))) (let ((.def_30 (< .def_29 (- 1)))) (let ((.def_31 (not .def_30))) (let ((.def_32 (or A2 .def_31))) (let ((.def_33 (< .def_0 (- 1)))) (let ((.def_34 (and .def_33 .def_24))) (let ((.def_35 (and .def_34 .def_32))) (let ((.def_36 (not .def_35))) (let ((.def_37 (and A9 A4))) (let ((.def_38 (or A3 A4))) (let ((.def_39 (or .def_38 .def_37))) (let ((.def_40 (not .def_39))) (let ((.def_41 (or .def_40 .def_36))) (let ((.def_42 (not .def_41))) (let ((.def_43 (or .def_42 .def_28))) (let ((.def_44 (<= x9 1))) (let ((.def_45 (<= 0 x9))) (let ((.def_46 (<= x8 1))) (let ((.def_47 (<= 0 x8))) (let ((.def_48 (<= x7 1))) (let ((.def_49 (<= 0 x7))) (let ((.def_50 (<= x6 1))) (let ((.def_51 (<= 0 x6))) (let ((.def_52 (<= x5 1))) (let ((.def_53 (<= 0 x5))) (let ((.def_54 (<= x4 1))) (let ((.def_55 (<= 0 x4))) (let ((.def_56 (<= x3 1))) (let ((.def_57 (<= 0 x3))) (let ((.def_58 (<= x2 1))) (let ((.def_59 (<= 0 x2))) (let ((.def_60 (<= x1 1))) (let ((.def_61 (<= 0 x1))) (let ((.def_62 (<= x0 1))) (let ((.def_63 (<= 0 x0))) (let ((.def_64 (and .def_63 .def_62 .def_61 .def_60 .def_59 .def_58 .def_57 .def_56 .def_55 .def_54 .def_53 .def_52 .def_51 .def_50 .def_49 .def_48 .def_47 .def_46 .def_45 .def_44 .def_43))) .def_64))))))))))))))))))))))))))))))))))))))))))))))))))))))))))))))))))
(check-sat)
